NAME: cluster_13
TYPE: TSP
DIMENSION: 8
EDGE_WEIGHT_TYPE: EUC_2D
NODE_COORD_SECTION
1 12000.00 16000.00
2 286.88 21449.32
3 1957.04 28646.25
4 3896.52 23412.39
5 1867.62 27684.61
6 2767.85 24404.42
7 1616.35 23881.35
8 1480.83 22801.90
EOF
